
Welcome to IBM(R) ILOG(R) CPLEX(R) Interactive Optimizer 22.1.1.0
  with Simplex, Mixed Integer & Barrier Optimizers
5725-A06 5725-A29 5724-Y48 5724-Y49 5724-Y54 5724-Y55 5655-Y21
Copyright IBM Corp. 1988, 2022.  All Rights Reserved.

Type 'help' for a list of available commands.
Type 'help' followed by a command name for more
information on commands.

CPLEX> Problem '/tmp/782ac056887547d6a415bc11763e41b3-pulp.lp' read.
Read time = 0.01 sec. (2.10 ticks)
CPLEX> New value for time limit in seconds: 900
CPLEX> Version identifier: 22.1.1.0 | 2022-11-28 | 9160aff4d
CPXPARAM_TimeLimit                               900
Tried aggregator 4 times.
MIP Presolve eliminated 5565 rows and 1026 columns.
MIP Presolve modified 19169 coefficients.
Aggregator did 49 substitutions.
Reduced MIP has 10735 rows, 2316 columns, and 48606 nonzeros.
Reduced MIP has 2153 binaries, 0 generals, 0 SOSs, and 0 indicators.
Presolve time = 0.06 sec. (97.14 ticks)
Found incumbent of value 1261.419000 after 0.07 sec. (105.82 ticks)
Probing fixed 14 vars, tightened 0 bounds.
Probing time = 0.01 sec. (5.20 ticks)
Tried aggregator 1 time.
Detecting symmetries...
MIP Presolve eliminated 2414 rows and 50 columns.
MIP Presolve modified 3507 coefficients.
Reduced MIP has 8321 rows, 2266 columns, and 42316 nonzeros.
Reduced MIP has 2123 binaries, 0 generals, 0 SOSs, and 0 indicators.
Presolve time = 0.03 sec. (46.97 ticks)
Probing time = 0.01 sec. (1.95 ticks)
Clique table members: 2387.
MIP emphasis: balance optimality and feasibility.
MIP search method: dynamic search.
Parallel mode: deterministic, using up to 32 threads.
Root relaxation solution time = 0.10 sec. (62.25 ticks)

        Nodes                                         Cuts/
   Node  Left     Objective  IInf  Best Integer    Best Bound    ItCnt     Gap

*     0+    0                         1261.4190        0.0140           100.00%
*     0+    0                            4.4150        0.0140            99.68%
      0     0        1.3099   219        4.4150        1.3099      312   70.33%
*     0+    0                            2.0180        1.3099            35.09%
      0     0        cutoff              2.0180        2.0180      312    0.00%
Elapsed time = 0.49 sec. (457.53 ticks, tree = 0.01 MB, solutions = 3)

Root node processing (before b&c):
  Real time             =    0.49 sec. (457.85 ticks)
Parallel b&c, 32 threads:
  Real time             =    0.00 sec. (0.00 ticks)
  Sync time (average)   =    0.00 sec.
  Wait time (average)   =    0.00 sec.
                          ------------
Total (root+branch&cut) =    0.49 sec. (457.85 ticks)

Solution pool: 3 solutions saved.

MIP - Integer optimal solution:  Objective =  2.0180000000e+00
Solution time =    0.50 sec.  Iterations = 312  Nodes = 0
Deterministic time = 457.86 ticks  (915.61 ticks/sec)

CPLEX> MILP problem relaxed to LP with fixed integer variables using
incumbent solution.
CPLEX> Version identifier: 22.1.1.0 | 2022-11-28 | 9160aff4d
CPXPARAM_TimeLimit                               900
Parallel mode: deterministic, using up to 32 threads for concurrent optimization:
 * Starting dual Simplex on 1 thread...
 * Starting Barrier on 30 threads...
 * Starting primal Simplex on 1 thread...
Tried aggregator 1 time.
LP Presolve eliminated 16349 rows and 3391 columns.
All rows and columns eliminated.
Presolve time = 0.00 sec. (7.58 ticks)

Dual simplex solved model.


Dual simplex - Optimal:  Objective =  2.0180000000e+00
Solution time =    0.02 sec.  Iterations = 0 (0)
Deterministic time = 15.56 ticks  (946.71 ticks/sec)

CPLEX> Solution written to file '/tmp/782ac056887547d6a415bc11763e41b3-pulp.sol'.
CPLEX> Root classes: ['26']
Status: Optimal
Solved x values:
['0.0', '1.2', '2.2', '3.2', '4.2', '6.0', '7.2', '8.0', '9.2', '12.2', '14.0', '15.2', '18.2', '20.2', '26.20', '82.8', '85.3', '86.3', '157.3', '158.3']
